p cnf 2121 3360
-1  -2 0 
1 2 0 
-2 3 0 
2  -3 0 
-3  -4 0 
3 4 0 
-4 -448 5 0 
-4 448 -5 0 
4 -449 5 0 
4 449 -5 0 
-5 -450 6 0 
-5 450 -6 0 
5 -451 6 0 
5 451 -6 0 
-6 -452 7 0 
-6 452 -7 0 
6 -453 7 0 
6 453 -7 0 
-7  -8 0 
7 8 0 
-8  -9 0 
8 9 0 
-9 10 0 
9  -10 0 
-10 11 0 
10  -11 0 
-11 12 0 
11  -12 0 
-12  -13 0 
12 13 0 
-13 14 0 
13  -14 0 
-14 -468 15 0 
-14 468 -15 0 
14 -469 15 0 
14 469 -15 0 
-15 -470 16 0 
-15 470 -16 0 
15 -471 16 0 
15 471 -16 0 
-16 17 0 
16  -17 0 
-17  -18 0 
17 18 0 
-18 19 0 
18  -19 0 
-19 20 0 
19  -20 0 
-20 21 0 
20  -21 0 
-1  -22 0 
1 22 0 
-22 -2 -484 23 0 
-22 -2 484 -23 0 
-22 2 -485 23 0 
-22 2 485 -23 0 
22 -2 -486 23 0 
22 -2 486 -23 0 
22 2 -487 23 0 
22 2 487 -23 0 
-23 -3 24 0 
-23 3 24 0 
23 -3  -24 0 
23 3 24 0 
-24 -4  -25 0 
-24 4  -25 0 
24 -4  -25 0 
24 4 25 0 
-25 -5 26 0 
-25 5  -26 0 
25 -5  -26 0 
25 5 26 0 
-26 -6 -500 27 0 
-26 -6 500 -27 0 
-26 6 -501 27 0 
-26 6 501 -27 0 
26 -6 -502 27 0 
26 -6 502 -27 0 
26 6 -503 27 0 
26 6 503 -27 0 
-27 -7  -28 0 
-27 7 28 0 
27 -7  -28 0 
27 7  -28 0 
-28 -8  -29 0 
-28 8  -29 0 
28 -8 29 0 
28 8 29 0 
-29 -9 30 0 
-29 9  -30 0 
29 -9 30 0 
29 9  -30 0 
-30 -10 -516 31 0 
-30 -10 516 -31 0 
-30 10 -517 31 0 
-30 10 517 -31 0 
30 -10 -518 31 0 
30 -10 518 -31 0 
30 10 -519 31 0 
30 10 519 -31 0 
-31 -11 32 0 
-31 11 32 0 
31 -11  -32 0 
31 11  -32 0 
-32 -12  -33 0 
-32 12 33 0 
32 -12 33 0 
32 12 33 0 
-33 -13 34 0 
-33 13 34 0 
33 -13 34 0 
33 13  -34 0 
-34 -14 35 0 
-34 14  -35 0 
34 -14  -35 0 
34 14  -35 0 
-35 -15 -536 36 0 
-35 -15 536 -36 0 
-35 15 -537 36 0 
-35 15 537 -36 0 
35 -15 -538 36 0 
35 -15 538 -36 0 
35 15 -539 36 0 
35 15 539 -36 0 
-36 -16  -37 0 
-36 16  -37 0 
36 -16 37 0 
36 16 37 0 
-37 -17 -544 38 0 
-37 -17 544 -38 0 
-37 17 -545 38 0 
-37 17 545 -38 0 
37 -17 -546 38 0 
37 -17 546 -38 0 
37 17 -547 38 0 
37 17 547 -38 0 
-38 -18 -548 39 0 
-38 -18 548 -39 0 
-38 18 -549 39 0 
-38 18 549 -39 0 
38 -18 -550 39 0 
38 -18 550 -39 0 
38 18 -551 39 0 
38 18 551 -39 0 
-39 -19 40 0 
-39 19  -40 0 
39 -19  -40 0 
39 19  -40 0 
-40 -20  -41 0 
-40 20 41 0 
40 -20 41 0 
40 20 41 0 
-41 -21 -560 42 0 
-41 -21 560 -42 0 
-41 21 -561 42 0 
-41 21 561 -42 0 
41 -21 -562 42 0 
41 -21 562 -42 0 
41 21 -563 42 0 
41 21 563 -42 0 
-22 -564 43 0 
-22 564 -43 0 
22 -565 43 0 
22 565 -43 0 
-43 -23  -44 0 
-43 23 44 0 
43 -23  -44 0 
43 23 44 0 
-44 -24 -570 45 0 
-44 -24 570 -45 0 
-44 24 -571 45 0 
-44 24 571 -45 0 
44 -24 -572 45 0 
44 -24 572 -45 0 
44 24 -573 45 0 
44 24 573 -45 0 
-45 -25 46 0 
-45 25 46 0 
45 -25 46 0 
45 25  -46 0 
-46 -26 47 0 
-46 26 47 0 
46 -26  -47 0 
46 26 47 0 
-47 -27 48 0 
-47 27  -48 0 
47 -27  -48 0 
47 27  -48 0 
-48 -28  -49 0 
-48 28  -49 0 
48 -28  -49 0 
48 28 49 0 
-49 -29 50 0 
-49 29  -50 0 
49 -29  -50 0 
49 29 50 0 
-50 -30  -51 0 
-50 30 51 0 
50 -30  -51 0 
50 30  -51 0 
-51 -31 52 0 
-51 31 52 0 
51 -31 52 0 
51 31  -52 0 
-52 -32 -602 53 0 
-52 -32 602 -53 0 
-52 32 -603 53 0 
-52 32 603 -53 0 
52 -32 -604 53 0 
52 -32 604 -53 0 
52 32 -605 53 0 
52 32 605 -53 0 
-53 -33 54 0 
-53 33 54 0 
53 -33 54 0 
53 33  -54 0 
-54 -34  -55 0 
-54 34 55 0 
54 -34  -55 0 
54 34  -55 0 
-55 -35 -614 56 0 
-55 -35 614 -56 0 
-55 35 -615 56 0 
-55 35 615 -56 0 
55 -35 -616 56 0 
55 -35 616 -56 0 
55 35 -617 56 0 
55 35 617 -56 0 
-56 -36  -57 0 
-56 36 57 0 
56 -36 57 0 
56 36  -57 0 
-57 -37 -622 58 0 
-57 -37 622 -58 0 
-57 37 -623 58 0 
-57 37 623 -58 0 
57 -37 -624 58 0 
57 -37 624 -58 0 
57 37 -625 58 0 
57 37 625 -58 0 
-58 -38 -626 59 0 
-58 -38 626 -59 0 
-58 38 -627 59 0 
-58 38 627 -59 0 
58 -38 -628 59 0 
58 -38 628 -59 0 
58 38 -629 59 0 
58 38 629 -59 0 
-59 -39  -60 0 
-59 39  -60 0 
59 -39 60 0 
59 39  -60 0 
-60 -40 61 0 
-60 40  -61 0 
60 -40  -61 0 
60 40 61 0 
-61 -41 62 0 
-61 41  -62 0 
61 -41 62 0 
61 41 62 0 
-62 -42  -63 0 
-62 42 63 0 
62 -42 63 0 
62 42 63 0 
-43 64 0 
43  -64 0 
-64 -44 65 0 
-64 44  -65 0 
64 -44  -65 0 
64 44  -65 0 
-65 -45  -66 0 
-65 45 66 0 
65 -45 66 0 
65 45  -66 0 
-66 -46  -67 0 
-66 46 67 0 
66 -46 67 0 
66 46 67 0 
-67 -47 68 0 
-67 47 68 0 
67 -47  -68 0 
67 47  -68 0 
-68 -48 69 0 
-68 48  -69 0 
68 -48 69 0 
68 48 69 0 
-69 -49  -70 0 
-69 49 70 0 
69 -49 70 0 
69 49 70 0 
-70 -50 -672 71 0 
-70 -50 672 -71 0 
-70 50 -673 71 0 
-70 50 673 -71 0 
70 -50 -674 71 0 
70 -50 674 -71 0 
70 50 -675 71 0 
70 50 675 -71 0 
-71 -51  -72 0 
-71 51 72 0 
71 -51 72 0 
71 51 72 0 
-72 -52  -73 0 
-72 52 73 0 
72 -52 73 0 
72 52  -73 0 
-73 -53 -684 74 0 
-73 -53 684 -74 0 
-73 53 -685 74 0 
-73 53 685 -74 0 
73 -53 -686 74 0 
73 -53 686 -74 0 
73 53 -687 74 0 
73 53 687 -74 0 
-74 -54 -688 75 0 
-74 -54 688 -75 0 
-74 54 -689 75 0 
-74 54 689 -75 0 
74 -54 -690 75 0 
74 -54 690 -75 0 
74 54 -691 75 0 
74 54 691 -75 0 
-75 -55  -76 0 
-75 55 76 0 
75 -55 76 0 
75 55 76 0 
-76 -56 77 0 
-76 56 77 0 
76 -56 77 0 
76 56  -77 0 
-77 -57 78 0 
-77 57  -78 0 
77 -57  -78 0 
77 57 78 0 
-78 -58 79 0 
-78 58 79 0 
78 -58 79 0 
78 58  -79 0 
-79 -59 80 0 
-79 59  -80 0 
79 -59 80 0 
79 59 80 0 
-80 -60  -81 0 
-80 60 81 0 
80 -60 81 0 
80 60  -81 0 
-81 -61  -82 0 
-81 61 82 0 
81 -61  -82 0 
81 61  -82 0 
-82 -62 83 0 
-82 62 83 0 
82 -62 83 0 
82 62  -83 0 
-83 -63  -84 0 
-83 63  -84 0 
83 -63 84 0 
83 63  -84 0 
-64  -85 0 
64 85 0 
-85 -65 86 0 
-85 65 86 0 
85 -65  -86 0 
85 65  -86 0 
-86 -66 87 0 
-86 66  -87 0 
86 -66  -87 0 
86 66  -87 0 
-87 -67 88 0 
-87 67 88 0 
87 -67  -88 0 
87 67  -88 0 
-88 -68 89 0 
-88 68  -89 0 
88 -68 89 0 
88 68 89 0 
-89 -69  -90 0 
-89 69  -90 0 
89 -69  -90 0 
89 69 90 0 
-90 -70 -750 91 0 
-90 -70 750 -91 0 
-90 70 -751 91 0 
-90 70 751 -91 0 
90 -70 -752 91 0 
90 -70 752 -91 0 
90 70 -753 91 0 
90 70 753 -91 0 
-91 -71  -92 0 
-91 71 92 0 
91 -71 92 0 
91 71  -92 0 
-92 -72 -758 93 0 
-92 -72 758 -93 0 
-92 72 -759 93 0 
-92 72 759 -93 0 
92 -72 -760 93 0 
92 -72 760 -93 0 
92 72 -761 93 0 
92 72 761 -93 0 
-93 -73 -762 94 0 
-93 -73 762 -94 0 
-93 73 -763 94 0 
-93 73 763 -94 0 
93 -73 -764 94 0 
93 -73 764 -94 0 
93 73 -765 94 0 
93 73 765 -94 0 
-94 -74 -766 95 0 
-94 -74 766 -95 0 
-94 74 -767 95 0 
-94 74 767 -95 0 
94 -74 -768 95 0 
94 -74 768 -95 0 
94 74 -769 95 0 
94 74 769 -95 0 
-95 -75 -770 96 0 
-95 -75 770 -96 0 
-95 75 -771 96 0 
-95 75 771 -96 0 
95 -75 -772 96 0 
95 -75 772 -96 0 
95 75 -773 96 0 
95 75 773 -96 0 
-96 -76 -774 97 0 
-96 -76 774 -97 0 
-96 76 -775 97 0 
-96 76 775 -97 0 
96 -76 -776 97 0 
96 -76 776 -97 0 
96 76 -777 97 0 
96 76 777 -97 0 
-97 -77 -778 98 0 
-97 -77 778 -98 0 
-97 77 -779 98 0 
-97 77 779 -98 0 
97 -77 -780 98 0 
97 -77 780 -98 0 
97 77 -781 98 0 
97 77 781 -98 0 
-98 -78 99 0 
-98 78 99 0 
98 -78  -99 0 
98 78  -99 0 
-99 -79 100 0 
-99 79  -100 0 
99 -79  -100 0 
99 79  -100 0 
-100 -80 101 0 
-100 80 101 0 
100 -80  -101 0 
100 80 101 0 
-101 -81 102 0 
-101 81  -102 0 
101 -81 102 0 
101 81 102 0 
-102 -82 103 0 
-102 82  -103 0 
102 -82 103 0 
102 82 103 0 
-103 -83 -802 104 0 
-103 -83 802 -104 0 
-103 83 -803 104 0 
-103 83 803 -104 0 
103 -83 -804 104 0 
103 -83 804 -104 0 
103 83 -805 104 0 
103 83 805 -104 0 
-104 -84 105 0 
-104 84  -105 0 
104 -84  -105 0 
104 84 105 0 
-85 -810 106 0 
-85 810 -106 0 
85 -811 106 0 
85 811 -106 0 
-106 -86 -812 107 0 
-106 -86 812 -107 0 
-106 86 -813 107 0 
-106 86 813 -107 0 
106 -86 -814 107 0 
106 -86 814 -107 0 
106 86 -815 107 0 
106 86 815 -107 0 
-107 -87  -108 0 
-107 87 108 0 
107 -87  -108 0 
107 87  -108 0 
-108 -88 109 0 
-108 88 109 0 
108 -88  -109 0 
108 88  -109 0 
-109 -89 110 0 
-109 89  -110 0 
109 -89 110 0 
109 89  -110 0 
-110 -90 -828 111 0 
-110 -90 828 -111 0 
-110 90 -829 111 0 
-110 90 829 -111 0 
110 -90 -830 111 0 
110 -90 830 -111 0 
110 90 -831 111 0 
110 90 831 -111 0 
-111 -91 -832 112 0 
-111 -91 832 -112 0 
-111 91 -833 112 0 
-111 91 833 -112 0 
111 -91 -834 112 0 
111 -91 834 -112 0 
111 91 -835 112 0 
111 91 835 -112 0 
-112 -92  -113 0 
-112 92  -113 0 
112 -92 113 0 
112 92 113 0 
-113 -93  -114 0 
-113 93  -114 0 
113 -93  -114 0 
113 93 114 0 
-114 -94 115 0 
-114 94  -115 0 
114 -94 115 0 
114 94 115 0 
-115 -95  -116 0 
-115 95  -116 0 
115 -95  -116 0 
115 95 116 0 
-116 -96  -117 0 
-116 96 117 0 
116 -96  -117 0 
116 96 117 0 
-117 -97  -118 0 
-117 97 118 0 
117 -97 118 0 
117 97 118 0 
-118 -98 119 0 
-118 98  -119 0 
118 -98  -119 0 
118 98 119 0 
-119 -99  -120 0 
-119 99 120 0 
119 -99  -120 0 
119 99 120 0 
-120 -100  -121 0 
-120 100  -121 0 
120 -100 121 0 
120 100 121 0 
-121 -101 -872 122 0 
-121 -101 872 -122 0 
-121 101 -873 122 0 
-121 101 873 -122 0 
121 -101 -874 122 0 
121 -101 874 -122 0 
121 101 -875 122 0 
121 101 875 -122 0 
-122 -102 123 0 
-122 102  -123 0 
122 -102 123 0 
122 102 123 0 
-123 -103 124 0 
-123 103 124 0 
123 -103  -124 0 
123 103 124 0 
-124 -104 125 0 
-124 104  -125 0 
124 -104  -125 0 
124 104 125 0 
-125 -105 126 0 
-125 105  -126 0 
125 -105 126 0 
125 105 126 0 
-106 -892 127 0 
-106 892 -127 0 
106 -893 127 0 
106 893 -127 0 
-127 -107 128 0 
-127 107 128 0 
127 -107  -128 0 
127 107 128 0 
-128 -108  -129 0 
-128 108 129 0 
128 -108  -129 0 
128 108  -129 0 
-129 -109 130 0 
-129 109 130 0 
129 -109  -130 0 
129 109  -130 0 
-130 -110 131 0 
-130 110  -131 0 
130 -110  -131 0 
130 110 131 0 
-131 -111  -132 0 
-131 111 132 0 
131 -111 132 0 
131 111  -132 0 
-132 -112 133 0 
-132 112 133 0 
132 -112 133 0 
132 112  -133 0 
-133 -113  -134 0 
-133 113 134 0 
133 -113  -134 0 
133 113 134 0 
-134 -114 -922 135 0 
-134 -114 922 -135 0 
-134 114 -923 135 0 
-134 114 923 -135 0 
134 -114 -924 135 0 
134 -114 924 -135 0 
134 114 -925 135 0 
134 114 925 -135 0 
-135 -115 136 0 
-135 115  -136 0 
135 -115  -136 0 
135 115 136 0 
-136 -116 137 0 
-136 116  -137 0 
136 -116  -137 0 
136 116  -137 0 
-137 -117 -934 138 0 
-137 -117 934 -138 0 
-137 117 -935 138 0 
-137 117 935 -138 0 
137 -117 -936 138 0 
137 -117 936 -138 0 
137 117 -937 138 0 
137 117 937 -138 0 
-138 -118  -139 0 
-138 118 139 0 
138 -118 139 0 
138 118 139 0 
-139 -119 -942 140 0 
-139 -119 942 -140 0 
-139 119 -943 140 0 
-139 119 943 -140 0 
139 -119 -944 140 0 
139 -119 944 -140 0 
139 119 -945 140 0 
139 119 945 -140 0 
-140 -120 141 0 
-140 120 141 0 
140 -120 141 0 
140 120  -141 0 
-141 -121 -950 142 0 
-141 -121 950 -142 0 
-141 121 -951 142 0 
-141 121 951 -142 0 
141 -121 -952 142 0 
141 -121 952 -142 0 
141 121 -953 142 0 
141 121 953 -142 0 
-142 -122  -143 0 
-142 122 143 0 
142 -122 143 0 
142 122  -143 0 
-143 -123 144 0 
-143 123 144 0 
143 -123 144 0 
143 123  -144 0 
-144 -124 145 0 
-144 124  -145 0 
144 -124 145 0 
144 124 145 0 
-145 -125 146 0 
-145 125 146 0 
145 -125  -146 0 
145 125  -146 0 
-146 -126 147 0 
-146 126 147 0 
146 -126  -147 0 
146 126 147 0 
-127 -974 148 0 
-127 974 -148 0 
127 -975 148 0 
127 975 -148 0 
-148 -128  -149 0 
-148 128  -149 0 
148 -128 149 0 
148 128 149 0 
-149 -129 150 0 
-149 129 150 0 
149 -129 150 0 
149 129  -150 0 
-150 -130  -151 0 
-150 130 151 0 
150 -130  -151 0 
150 130 151 0 
-151 -131 152 0 
-151 131  -152 0 
151 -131 152 0 
151 131  -152 0 
-152 -132 -992 153 0 
-152 -132 992 -153 0 
-152 132 -993 153 0 
-152 132 993 -153 0 
152 -132 -994 153 0 
152 -132 994 -153 0 
152 132 -995 153 0 
152 132 995 -153 0 
-153 -133  -154 0 
-153 133 154 0 
153 -133  -154 0 
153 133  -154 0 
-154 -134  -155 0 
-154 134 155 0 
154 -134 155 0 
154 134 155 0 
-155 -135 156 0 
-155 135  -156 0 
155 -135  -156 0 
155 135 156 0 
-156 -136 -1008 157 0 
-156 -136 1008 -157 0 
-156 136 -1009 157 0 
-156 136 1009 -157 0 
156 -136 -1010 157 0 
156 -136 1010 -157 0 
156 136 -1011 157 0 
156 136 1011 -157 0 
-157 -137  -158 0 
-157 137  -158 0 
157 -137 158 0 
157 137  -158 0 
-158 -138 159 0 
-158 138 159 0 
158 -138 159 0 
158 138  -159 0 
-159 -139 -1020 160 0 
-159 -139 1020 -160 0 
-159 139 -1021 160 0 
-159 139 1021 -160 0 
159 -139 -1022 160 0 
159 -139 1022 -160 0 
159 139 -1023 160 0 
159 139 1023 -160 0 
-160 -140 161 0 
-160 140  -161 0 
160 -140 161 0 
160 140 161 0 
-161 -141  -162 0 
-161 141 162 0 
161 -141  -162 0 
161 141 162 0 
-162 -142 -1032 163 0 
-162 -142 1032 -163 0 
-162 142 -1033 163 0 
-162 142 1033 -163 0 
162 -142 -1034 163 0 
162 -142 1034 -163 0 
162 142 -1035 163 0 
162 142 1035 -163 0 
-163 -143 -1036 164 0 
-163 -143 1036 -164 0 
-163 143 -1037 164 0 
-163 143 1037 -164 0 
163 -143 -1038 164 0 
163 -143 1038 -164 0 
163 143 -1039 164 0 
163 143 1039 -164 0 
-164 -144  -165 0 
-164 144 165 0 
164 -144 165 0 
164 144 165 0 
-165 -145  -166 0 
-165 145 166 0 
165 -145  -166 0 
165 145  -166 0 
-166 -146 167 0 
-166 146 167 0 
166 -146 167 0 
166 146  -167 0 
-167 -147 168 0 
-167 147  -168 0 
167 -147  -168 0 
167 147 168 0 
-148 169 0 
148  -169 0 
-169 -149  -170 0 
-169 149 170 0 
169 -149  -170 0 
169 149 170 0 
-170 -150 171 0 
-170 150 171 0 
170 -150  -171 0 
170 150  -171 0 
-171 -151 172 0 
-171 151  -172 0 
171 -151  -172 0 
171 151  -172 0 
-172 -152 173 0 
-172 152  -173 0 
172 -152  -173 0 
172 152  -173 0 
-173 -153 174 0 
-173 153 174 0 
173 -153  -174 0 
173 153 174 0 
-174 -154  -175 0 
-174 154 175 0 
174 -154  -175 0 
174 154  -175 0 
-175 -155  -176 0 
-175 155 176 0 
175 -155  -176 0 
175 155  -176 0 
-176 -156 177 0 
-176 156 177 0 
176 -156 177 0 
176 156  -177 0 
-177 -157 178 0 
-177 157  -178 0 
177 -157 178 0 
177 157 178 0 
-178 -158 -1094 179 0 
-178 -158 1094 -179 0 
-178 158 -1095 179 0 
-178 158 1095 -179 0 
178 -158 -1096 179 0 
178 -158 1096 -179 0 
178 158 -1097 179 0 
178 158 1097 -179 0 
-179 -159 180 0 
-179 159  -180 0 
179 -159  -180 0 
179 159  -180 0 
-180 -160 -1102 181 0 
-180 -160 1102 -181 0 
-180 160 -1103 181 0 
-180 160 1103 -181 0 
180 -160 -1104 181 0 
180 -160 1104 -181 0 
180 160 -1105 181 0 
180 160 1105 -181 0 
-181 -161 182 0 
-181 161 182 0 
181 -161  -182 0 
181 161 182 0 
-182 -162 183 0 
-182 162 183 0 
182 -162  -183 0 
182 162  -183 0 
-183 -163 184 0 
-183 163  -184 0 
183 -163 184 0 
183 163  -184 0 
-184 -164 185 0 
-184 164  -185 0 
184 -164 185 0 
184 164 185 0 
-185 -165 186 0 
-185 165  -186 0 
185 -165  -186 0 
185 165 186 0 
-186 -166 187 0 
-186 166  -187 0 
186 -166 187 0 
186 166  -187 0 
-187 -167 188 0 
-187 167  -188 0 
187 -167  -188 0 
187 167  -188 0 
-188 -168 -1134 189 0 
-188 -168 1134 -189 0 
-188 168 -1135 189 0 
-188 168 1135 -189 0 
188 -168 -1136 189 0 
188 -168 1136 -189 0 
188 168 -1137 189 0 
188 168 1137 -189 0 
-169 190 0 
169  -190 0 
-190 -170 -1140 191 0 
-190 -170 1140 -191 0 
-190 170 -1141 191 0 
-190 170 1141 -191 0 
190 -170 -1142 191 0 
190 -170 1142 -191 0 
190 170 -1143 191 0 
190 170 1143 -191 0 
-191 -171  -192 0 
-191 171 192 0 
191 -171  -192 0 
191 171  -192 0 
-192 -172 -1148 193 0 
-192 -172 1148 -193 0 
-192 172 -1149 193 0 
-192 172 1149 -193 0 
192 -172 -1150 193 0 
192 -172 1150 -193 0 
192 172 -1151 193 0 
192 172 1151 -193 0 
-193 -173 194 0 
-193 173  -194 0 
193 -173  -194 0 
193 173 194 0 
-194 -174 -1156 195 0 
-194 -174 1156 -195 0 
-194 174 -1157 195 0 
-194 174 1157 -195 0 
194 -174 -1158 195 0 
194 -174 1158 -195 0 
194 174 -1159 195 0 
194 174 1159 -195 0 
-195 -175 196 0 
-195 175 196 0 
195 -175  -196 0 
195 175 196 0 
-196 -176 197 0 
-196 176 197 0 
196 -176  -197 0 
196 176  -197 0 
-197 -177  -198 0 
-197 177  -198 0 
197 -177 198 0 
197 177  -198 0 
-198 -178 -1172 199 0 
-198 -178 1172 -199 0 
-198 178 -1173 199 0 
-198 178 1173 -199 0 
198 -178 -1174 199 0 
198 -178 1174 -199 0 
198 178 -1175 199 0 
198 178 1175 -199 0 
-199 -179 200 0 
-199 179 200 0 
199 -179  -200 0 
199 179  -200 0 
-200 -180  -201 0 
-200 180  -201 0 
200 -180 201 0 
200 180 201 0 
-201 -181  -202 0 
-201 181  -202 0 
201 -181 202 0 
201 181  -202 0 
-202 -182 203 0 
-202 182  -203 0 
202 -182  -203 0 
202 182  -203 0 
-203 -183 204 0 
-203 183  -204 0 
203 -183 204 0 
203 183 204 0 
-204 -184  -205 0 
-204 184  -205 0 
204 -184  -205 0 
204 184 205 0 
-205 -185 206 0 
-205 185  -206 0 
205 -185 206 0 
205 185 206 0 
-206 -186  -207 0 
-206 186 207 0 
206 -186 207 0 
206 186 207 0 
-207 -187  -208 0 
-207 187 208 0 
207 -187  -208 0 
207 187  -208 0 
-208 -188  -209 0 
-208 188 209 0 
208 -188  -209 0 
208 188 209 0 
-209 -189 210 0 
-209 189  -210 0 
209 -189  -210 0 
209 189  -210 0 
-190 -1220 211 0 
-190 1220 -211 0 
190 -1221 211 0 
190 1221 -211 0 
-211 -191 -1222 212 0 
-211 -191 1222 -212 0 
-211 191 -1223 212 0 
-211 191 1223 -212 0 
211 -191 -1224 212 0 
211 -191 1224 -212 0 
211 191 -1225 212 0 
211 191 1225 -212 0 
-212 -192 -1226 213 0 
-212 -192 1226 -213 0 
-212 192 -1227 213 0 
-212 192 1227 -213 0 
212 -192 -1228 213 0 
212 -192 1228 -213 0 
212 192 -1229 213 0 
212 192 1229 -213 0 
-213 -193  -214 0 
-213 193 214 0 
213 -193 214 0 
213 193 214 0 
-214 -194 215 0 
-214 194  -215 0 
214 -194  -215 0 
214 194  -215 0 
-215 -195 216 0 
-215 195  -216 0 
215 -195 216 0 
215 195 216 0 
-216 -196 217 0 
-216 196  -217 0 
216 -196  -217 0 
216 196  -217 0 
-217 -197 -1246 218 0 
-217 -197 1246 -218 0 
-217 197 -1247 218 0 
-217 197 1247 -218 0 
217 -197 -1248 218 0 
217 -197 1248 -218 0 
217 197 -1249 218 0 
217 197 1249 -218 0 
-218 -198 -1250 219 0 
-218 -198 1250 -219 0 
-218 198 -1251 219 0 
-218 198 1251 -219 0 
218 -198 -1252 219 0 
218 -198 1252 -219 0 
218 198 -1253 219 0 
218 198 1253 -219 0 
-219 -199 220 0 
-219 199  -220 0 
219 -199  -220 0 
219 199  -220 0 
-220 -200 -1258 221 0 
-220 -200 1258 -221 0 
-220 200 -1259 221 0 
-220 200 1259 -221 0 
220 -200 -1260 221 0 
220 -200 1260 -221 0 
220 200 -1261 221 0 
220 200 1261 -221 0 
-221 -201 -1262 222 0 
-221 -201 1262 -222 0 
-221 201 -1263 222 0 
-221 201 1263 -222 0 
221 -201 -1264 222 0 
221 -201 1264 -222 0 
221 201 -1265 222 0 
221 201 1265 -222 0 
-222 -202 -1266 223 0 
-222 -202 1266 -223 0 
-222 202 -1267 223 0 
-222 202 1267 -223 0 
222 -202 -1268 223 0 
222 -202 1268 -223 0 
222 202 -1269 223 0 
222 202 1269 -223 0 
-223 -203 224 0 
-223 203  -224 0 
223 -203  -224 0 
223 203  -224 0 
-224 -204 225 0 
-224 204  -225 0 
224 -204  -225 0 
224 204  -225 0 
-225 -205 226 0 
-225 205 226 0 
225 -205 226 0 
225 205  -226 0 
-226 -206 227 0 
-226 206  -227 0 
226 -206 227 0 
226 206  -227 0 
-227 -207 -1286 228 0 
-227 -207 1286 -228 0 
-227 207 -1287 228 0 
-227 207 1287 -228 0 
227 -207 -1288 228 0 
227 -207 1288 -228 0 
227 207 -1289 228 0 
227 207 1289 -228 0 
-228 -208 229 0 
-228 208 229 0 
228 -208 229 0 
228 208  -229 0 
-229 -209  -230 0 
-229 209 230 0 
229 -209  -230 0 
229 209 230 0 
-230 -210  -231 0 
-230 210 231 0 
230 -210 231 0 
230 210  -231 0 
-211  -232 0 
211 232 0 
-232 -212 233 0 
-232 212  -233 0 
232 -212 233 0 
232 212 233 0 
-233 -213 234 0 
-233 213 234 0 
233 -213  -234 0 
233 213  -234 0 
-234 -214 235 0 
-234 214  -235 0 
234 -214 235 0 
234 214  -235 0 
-235 -215  -236 0 
-235 215  -236 0 
235 -215 236 0 
235 215  -236 0 
-236 -216  -237 0 
-236 216 237 0 
236 -216 237 0 
236 216 237 0 
-237 -217 238 0 
-237 217  -238 0 
237 -217 238 0 
237 217 238 0 
-238 -218 -1328 239 0 
-238 -218 1328 -239 0 
-238 218 -1329 239 0 
-238 218 1329 -239 0 
238 -218 -1330 239 0 
238 -218 1330 -239 0 
238 218 -1331 239 0 
238 218 1331 -239 0 
-239 -219  -240 0 
-239 219 240 0 
239 -219 240 0 
239 219  -240 0 
-240 -220  -241 0 
-240 220  -241 0 
240 -220 241 0 
240 220  -241 0 
-241 -221  -242 0 
-241 221  -242 0 
241 -221 242 0 
241 221 242 0 
-242 -222 243 0 
-242 222  -243 0 
242 -222  -243 0 
242 222 243 0 
-243 -223 -1348 244 0 
-243 -223 1348 -244 0 
-243 223 -1349 244 0 
-243 223 1349 -244 0 
243 -223 -1350 244 0 
243 -223 1350 -244 0 
243 223 -1351 244 0 
243 223 1351 -244 0 
-244 -224 -1352 245 0 
-244 -224 1352 -245 0 
-244 224 -1353 245 0 
-244 224 1353 -245 0 
244 -224 -1354 245 0 
244 -224 1354 -245 0 
244 224 -1355 245 0 
244 224 1355 -245 0 
-245 -225  -246 0 
-245 225 246 0 
245 -225 246 0 
245 225  -246 0 
-246 -226 -1360 247 0 
-246 -226 1360 -247 0 
-246 226 -1361 247 0 
-246 226 1361 -247 0 
246 -226 -1362 247 0 
246 -226 1362 -247 0 
246 226 -1363 247 0 
246 226 1363 -247 0 
-247 -227 -1364 248 0 
-247 -227 1364 -248 0 
-247 227 -1365 248 0 
-247 227 1365 -248 0 
247 -227 -1366 248 0 
247 -227 1366 -248 0 
247 227 -1367 248 0 
247 227 1367 -248 0 
-248 -228  -249 0 
-248 228 249 0 
248 -228 249 0 
248 228 249 0 
-249 -229 -1372 250 0 
-249 -229 1372 -250 0 
-249 229 -1373 250 0 
-249 229 1373 -250 0 
249 -229 -1374 250 0 
249 -229 1374 -250 0 
249 229 -1375 250 0 
249 229 1375 -250 0 
-250 -230  -251 0 
-250 230  -251 0 
250 -230 251 0 
250 230  -251 0 
-251 -231 252 0 
-251 231  -252 0 
251 -231  -252 0 
251 231  -252 0 
-232 253 0 
232  -253 0 
-253 -233 254 0 
-253 233  -254 0 
253 -233 254 0 
253 233  -254 0 
-254 -234 255 0 
-254 234  -255 0 
254 -234 255 0 
254 234  -255 0 
-255 -235 -1394 256 0 
-255 -235 1394 -256 0 
-255 235 -1395 256 0 
-255 235 1395 -256 0 
255 -235 -1396 256 0 
255 -235 1396 -256 0 
255 235 -1397 256 0 
255 235 1397 -256 0 
-256 -236  -257 0 
-256 236 257 0 
256 -236 257 0 
256 236 257 0 
-257 -237  -258 0 
-257 237 258 0 
257 -237  -258 0 
257 237 258 0 
-258 -238 -1406 259 0 
-258 -238 1406 -259 0 
-258 238 -1407 259 0 
-258 238 1407 -259 0 
258 -238 -1408 259 0 
258 -238 1408 -259 0 
258 238 -1409 259 0 
258 238 1409 -259 0 
-259 -239 260 0 
-259 239 260 0 
259 -239 260 0 
259 239  -260 0 
-260 -240 261 0 
-260 240  -261 0 
260 -240  -261 0 
260 240  -261 0 
-261 -241  -262 0 
-261 241 262 0 
261 -241  -262 0 
261 241  -262 0 
-262 -242 -1422 263 0 
-262 -242 1422 -263 0 
-262 242 -1423 263 0 
-262 242 1423 -263 0 
262 -242 -1424 263 0 
262 -242 1424 -263 0 
262 242 -1425 263 0 
262 242 1425 -263 0 
-263 -243 -1426 264 0 
-263 -243 1426 -264 0 
-263 243 -1427 264 0 
-263 243 1427 -264 0 
263 -243 -1428 264 0 
263 -243 1428 -264 0 
263 243 -1429 264 0 
263 243 1429 -264 0 
-264 -244 -1430 265 0 
-264 -244 1430 -265 0 
-264 244 -1431 265 0 
-264 244 1431 -265 0 
264 -244 -1432 265 0 
264 -244 1432 -265 0 
264 244 -1433 265 0 
264 244 1433 -265 0 
-265 -245  -266 0 
-265 245 266 0 
265 -245 266 0 
265 245  -266 0 
-266 -246 267 0 
-266 246 267 0 
266 -246 267 0 
266 246  -267 0 
-267 -247  -268 0 
-267 247 268 0 
267 -247  -268 0 
267 247  -268 0 
-268 -248 269 0 
-268 248  -269 0 
268 -248  -269 0 
268 248  -269 0 
-269 -249 -1450 270 0 
-269 -249 1450 -270 0 
-269 249 -1451 270 0 
-269 249 1451 -270 0 
269 -249 -1452 270 0 
269 -249 1452 -270 0 
269 249 -1453 270 0 
269 249 1453 -270 0 
-270 -250 271 0 
-270 250  -271 0 
270 -250 271 0 
270 250 271 0 
-271 -251 272 0 
-271 251  -272 0 
271 -251 272 0 
271 251 272 0 
-272 -252 -1462 273 0 
-272 -252 1462 -273 0 
-272 252 -1463 273 0 
-272 252 1463 -273 0 
272 -252 -1464 273 0 
272 -252 1464 -273 0 
272 252 -1465 273 0 
272 252 1465 -273 0 
-253 274 0 
253  -274 0 
-274 -254 275 0 
-274 254 275 0 
274 -254  -275 0 
274 254 275 0 
-275 -255  -276 0 
-275 255 276 0 
275 -255 276 0 
275 255  -276 0 
-276 -256 -1476 277 0 
-276 -256 1476 -277 0 
-276 256 -1477 277 0 
-276 256 1477 -277 0 
276 -256 -1478 277 0 
276 -256 1478 -277 0 
276 256 -1479 277 0 
276 256 1479 -277 0 
-277 -257  -278 0 
-277 257 278 0 
277 -257  -278 0 
277 257  -278 0 
-278 -258 -1484 279 0 
-278 -258 1484 -279 0 
-278 258 -1485 279 0 
-278 258 1485 -279 0 
278 -258 -1486 279 0 
278 -258 1486 -279 0 
278 258 -1487 279 0 
278 258 1487 -279 0 
-279 -259  -280 0 
-279 259  -280 0 
279 -259 280 0 
279 259  -280 0 
-280 -260  -281 0 
-280 260 281 0 
280 -260  -281 0 
280 260  -281 0 
-281 -261 282 0 
-281 261 282 0 
281 -261  -282 0 
281 261  -282 0 
-282 -262  -283 0 
-282 262  -283 0 
282 -262 283 0 
282 262 283 0 
-283 -263  -284 0 
-283 263 284 0 
283 -263 284 0 
283 263  -284 0 
-284 -264  -285 0 
-284 264 285 0 
284 -264  -285 0 
284 264  -285 0 
-285 -265  -286 0 
-285 265  -286 0 
285 -265  -286 0 
285 265 286 0 
-286 -266  -287 0 
-286 266  -287 0 
286 -266  -287 0 
286 266 287 0 
-287 -267 -1520 288 0 
-287 -267 1520 -288 0 
-287 267 -1521 288 0 
-287 267 1521 -288 0 
287 -267 -1522 288 0 
287 -267 1522 -288 0 
287 267 -1523 288 0 
287 267 1523 -288 0 
-288 -268 289 0 
-288 268 289 0 
288 -268  -289 0 
288 268  -289 0 
-289 -269  -290 0 
-289 269  -290 0 
289 -269 290 0 
289 269  -290 0 
-290 -270 291 0 
-290 270  -291 0 
290 -270  -291 0 
290 270 291 0 
-291 -271 292 0 
-291 271  -292 0 
291 -271 292 0 
291 271 292 0 
-292 -272 293 0 
-292 272  -293 0 
292 -272 293 0 
292 272 293 0 
-293 -273  -294 0 
-293 273  -294 0 
293 -273 294 0 
293 273 294 0 
-274  -295 0 
274 295 0 
-295 -275 -1550 296 0 
-295 -275 1550 -296 0 
-295 275 -1551 296 0 
-295 275 1551 -296 0 
295 -275 -1552 296 0 
295 -275 1552 -296 0 
295 275 -1553 296 0 
295 275 1553 -296 0 
-296 -276 297 0 
-296 276  -297 0 
296 -276  -297 0 
296 276 297 0 
-297 -277  -298 0 
-297 277 298 0 
297 -277 298 0 
297 277 298 0 
-298 -278 299 0 
-298 278 299 0 
298 -278  -299 0 
298 278  -299 0 
-299 -279  -300 0 
-299 279 300 0 
299 -279 300 0 
299 279 300 0 
-300 -280 301 0 
-300 280  -301 0 
300 -280 301 0 
300 280  -301 0 
-301 -281  -302 0 
-301 281 302 0 
301 -281  -302 0 
301 281  -302 0 
-302 -282 303 0 
-302 282 303 0 
302 -282  -303 0 
302 282 303 0 
-303 -283 -1582 304 0 
-303 -283 1582 -304 0 
-303 283 -1583 304 0 
-303 283 1583 -304 0 
303 -283 -1584 304 0 
303 -283 1584 -304 0 
303 283 -1585 304 0 
303 283 1585 -304 0 
-304 -284  -305 0 
-304 284  -305 0 
304 -284 305 0 
304 284  -305 0 
-305 -285 306 0 
-305 285  -306 0 
305 -285 306 0 
305 285  -306 0 
-306 -286  -307 0 
-306 286  -307 0 
306 -286 307 0 
306 286  -307 0 
-307 -287 -1598 308 0 
-307 -287 1598 -308 0 
-307 287 -1599 308 0 
-307 287 1599 -308 0 
307 -287 -1600 308 0 
307 -287 1600 -308 0 
307 287 -1601 308 0 
307 287 1601 -308 0 
-308 -288  -309 0 
-308 288 309 0 
308 -288 309 0 
308 288  -309 0 
-309 -289 310 0 
-309 289  -310 0 
309 -289 310 0 
309 289 310 0 
-310 -290  -311 0 
-310 290 311 0 
310 -290  -311 0 
310 290 311 0 
-311 -291  -312 0 
-311 291  -312 0 
311 -291 312 0 
311 291  -312 0 
-312 -292  -313 0 
-312 292  -313 0 
312 -292 313 0 
312 292 313 0 
-313 -293 314 0 
-313 293  -314 0 
313 -293  -314 0 
313 293 314 0 
-314 -294  -315 0 
-314 294 315 0 
314 -294 315 0 
314 294  -315 0 
-295  -316 0 
295 316 0 
-316 -296 -1632 317 0 
-316 -296 1632 -317 0 
-316 296 -1633 317 0 
-316 296 1633 -317 0 
316 -296 -1634 317 0 
316 -296 1634 -317 0 
316 296 -1635 317 0 
316 296 1635 -317 0 
-317 -297 318 0 
-317 297 318 0 
317 -297 318 0 
317 297  -318 0 
-318 -298 319 0 
-318 298  -319 0 
318 -298 319 0 
318 298 319 0 
-319 -299 320 0 
-319 299  -320 0 
319 -299 320 0 
319 299 320 0 
-320 -300 321 0 
-320 300 321 0 
320 -300 321 0 
320 300  -321 0 
-321 -301 -1652 322 0 
-321 -301 1652 -322 0 
-321 301 -1653 322 0 
-321 301 1653 -322 0 
321 -301 -1654 322 0 
321 -301 1654 -322 0 
321 301 -1655 322 0 
321 301 1655 -322 0 
-322 -302  -323 0 
-322 302  -323 0 
322 -302 323 0 
322 302 323 0 
-323 -303  -324 0 
-323 303  -324 0 
323 -303 324 0 
323 303  -324 0 
-324 -304  -325 0 
-324 304 325 0 
324 -304  -325 0 
324 304 325 0 
-325 -305 326 0 
-325 305  -326 0 
325 -305  -326 0 
325 305 326 0 
-326 -306  -327 0 
-326 306  -327 0 
326 -306 327 0 
326 306 327 0 
-327 -307  -328 0 
-327 307 328 0 
327 -307 328 0 
327 307 328 0 
-328 -308 329 0 
-328 308 329 0 
328 -308 329 0 
328 308  -329 0 
-329 -309  -330 0 
-329 309 330 0 
329 -309 330 0 
329 309  -330 0 
-330 -310 331 0 
-330 310 331 0 
330 -310  -331 0 
330 310 331 0 
-331 -311 332 0 
-331 311  -332 0 
331 -311  -332 0 
331 311  -332 0 
-332 -312  -333 0 
-332 312  -333 0 
332 -312  -333 0 
332 312 333 0 
-333 -313 -1700 334 0 
-333 -313 1700 -334 0 
-333 313 -1701 334 0 
-333 313 1701 -334 0 
333 -313 -1702 334 0 
333 -313 1702 -334 0 
333 313 -1703 334 0 
333 313 1703 -334 0 
-334 -314 -1704 335 0 
-334 -314 1704 -335 0 
-334 314 -1705 335 0 
-334 314 1705 -335 0 
334 -314 -1706 335 0 
334 -314 1706 -335 0 
334 314 -1707 335 0 
334 314 1707 -335 0 
-335 -315  -336 0 
-335 315 336 0 
335 -315 336 0 
335 315 336 0 
-316 -1712 337 0 
-316 1712 -337 0 
316 -1713 337 0 
316 1713 -337 0 
-337 -317 338 0 
-337 317  -338 0 
337 -317  -338 0 
337 317  -338 0 
-338 -318 -1718 339 0 
-338 -318 1718 -339 0 
-338 318 -1719 339 0 
-338 318 1719 -339 0 
338 -318 -1720 339 0 
338 -318 1720 -339 0 
338 318 -1721 339 0 
338 318 1721 -339 0 
-339 -319 340 0 
-339 319 340 0 
339 -319  -340 0 
339 319 340 0 
-340 -320  -341 0 
-340 320  -341 0 
340 -320 341 0 
340 320  -341 0 
-341 -321 342 0 
-341 321  -342 0 
341 -321  -342 0 
341 321  -342 0 
-342 -322 -1734 343 0 
-342 -322 1734 -343 0 
-342 322 -1735 343 0 
-342 322 1735 -343 0 
342 -322 -1736 343 0 
342 -322 1736 -343 0 
342 322 -1737 343 0 
342 322 1737 -343 0 
-343 -323 -1738 344 0 
-343 -323 1738 -344 0 
-343 323 -1739 344 0 
-343 323 1739 -344 0 
343 -323 -1740 344 0 
343 -323 1740 -344 0 
343 323 -1741 344 0 
343 323 1741 -344 0 
-344 -324 -1742 345 0 
-344 -324 1742 -345 0 
-344 324 -1743 345 0 
-344 324 1743 -345 0 
344 -324 -1744 345 0 
344 -324 1744 -345 0 
344 324 -1745 345 0 
344 324 1745 -345 0 
-345 -325 -1746 346 0 
-345 -325 1746 -346 0 
-345 325 -1747 346 0 
-345 325 1747 -346 0 
345 -325 -1748 346 0 
345 -325 1748 -346 0 
345 325 -1749 346 0 
345 325 1749 -346 0 
-346 -326 347 0 
-346 326  -347 0 
346 -326  -347 0 
346 326  -347 0 
-347 -327 348 0 
-347 327 348 0 
347 -327  -348 0 
347 327 348 0 
-348 -328 -1758 349 0 
-348 -328 1758 -349 0 
-348 328 -1759 349 0 
-348 328 1759 -349 0 
348 -328 -1760 349 0 
348 -328 1760 -349 0 
348 328 -1761 349 0 
348 328 1761 -349 0 
-349 -329 -1762 350 0 
-349 -329 1762 -350 0 
-349 329 -1763 350 0 
-349 329 1763 -350 0 
349 -329 -1764 350 0 
349 -329 1764 -350 0 
349 329 -1765 350 0 
349 329 1765 -350 0 
-350 -330 -1766 351 0 
-350 -330 1766 -351 0 
-350 330 -1767 351 0 
-350 330 1767 -351 0 
350 -330 -1768 351 0 
350 -330 1768 -351 0 
350 330 -1769 351 0 
350 330 1769 -351 0 
-351 -331  -352 0 
-351 331 352 0 
351 -331  -352 0 
351 331 352 0 
-352 -332  -353 0 
-352 332  -353 0 
352 -332  -353 0 
352 332 353 0 
-353 -333  -354 0 
-353 333  -354 0 
353 -333  -354 0 
353 333 354 0 
-354 -334 355 0 
-354 334  -355 0 
354 -334 355 0 
354 334  -355 0 
-355 -335  -356 0 
-355 335 356 0 
355 -335 356 0 
355 335 356 0 
-356 -336 -1790 357 0 
-356 -336 1790 -357 0 
-356 336 -1791 357 0 
-356 336 1791 -357 0 
356 -336 -1792 357 0 
356 -336 1792 -357 0 
356 336 -1793 357 0 
356 336 1793 -357 0 
-337  -358 0 
337 358 0 
-358 -338 359 0 
-358 338  -359 0 
358 -338 359 0 
358 338  -359 0 
-359 -339  -360 0 
-359 339 360 0 
359 -339  -360 0 
359 339  -360 0 
-360 -340  -361 0 
-360 340  -361 0 
360 -340 361 0 
360 340  -361 0 
-361 -341  -362 0 
-361 341  -362 0 
361 -341 362 0 
361 341  -362 0 
-362 -342  -363 0 
-362 342 363 0 
362 -342 363 0 
362 342 363 0 
-363 -343 364 0 
-363 343  -364 0 
363 -343  -364 0 
363 343  -364 0 
-364 -344 365 0 
-364 344  -365 0 
364 -344  -365 0 
364 344  -365 0 
-365 -345 -1824 366 0 
-365 -345 1824 -366 0 
-365 345 -1825 366 0 
-365 345 1825 -366 0 
365 -345 -1826 366 0 
365 -345 1826 -366 0 
365 345 -1827 366 0 
365 345 1827 -366 0 
-366 -346 367 0 
-366 346 367 0 
366 -346 367 0 
366 346  -367 0 
-367 -347  -368 0 
-367 347  -368 0 
367 -347 368 0 
367 347 368 0 
-368 -348  -369 0 
-368 348 369 0 
368 -348  -369 0 
368 348  -369 0 
-369 -349 370 0 
-369 349 370 0 
369 -349  -370 0 
369 349 370 0 
-370 -350  -371 0 
-370 350  -371 0 
370 -350 371 0 
370 350 371 0 
-371 -351 372 0 
-371 351 372 0 
371 -351  -372 0 
371 351 372 0 
-372 -352 373 0 
-372 352  -373 0 
372 -352 373 0 
372 352  -373 0 
-373 -353 374 0 
-373 353 374 0 
373 -353  -374 0 
373 353  -374 0 
-374 -354  -375 0 
-374 354  -375 0 
374 -354  -375 0 
374 354 375 0 
-375 -355 376 0 
-375 355  -376 0 
375 -355  -376 0 
375 355 376 0 
-376 -356 377 0 
-376 356 377 0 
376 -356  -377 0 
376 356  -377 0 
-377 -357 -1872 378 0 
-377 -357 1872 -378 0 
-377 357 -1873 378 0 
-377 357 1873 -378 0 
377 -357 -1874 378 0 
377 -357 1874 -378 0 
377 357 -1875 378 0 
377 357 1875 -378 0 
-358  -379 0 
358 379 0 
-379 -359 380 0 
-379 359 380 0 
379 -359 380 0 
379 359  -380 0 
-380 -360 -1882 381 0 
-380 -360 1882 -381 0 
-380 360 -1883 381 0 
-380 360 1883 -381 0 
380 -360 -1884 381 0 
380 -360 1884 -381 0 
380 360 -1885 381 0 
380 360 1885 -381 0 
-381 -361  -382 0 
-381 361  -382 0 
381 -361 382 0 
381 361 382 0 
-382 -362 383 0 
-382 362  -383 0 
382 -362 383 0 
382 362  -383 0 
-383 -363 -1894 384 0 
-383 -363 1894 -384 0 
-383 363 -1895 384 0 
-383 363 1895 -384 0 
383 -363 -1896 384 0 
383 -363 1896 -384 0 
383 363 -1897 384 0 
383 363 1897 -384 0 
-384 -364  -385 0 
-384 364  -385 0 
384 -364  -385 0 
384 364 385 0 
-385 -365  -386 0 
-385 365  -386 0 
385 -365 386 0 
385 365 386 0 
-386 -366 387 0 
-386 366  -387 0 
386 -366  -387 0 
386 366  -387 0 
-387 -367  -388 0 
-387 367  -388 0 
387 -367 388 0 
387 367 388 0 
-388 -368 389 0 
-388 368 389 0 
388 -368  -389 0 
388 368  -389 0 
-389 -369 390 0 
-389 369  -390 0 
389 -369 390 0 
389 369 390 0 
-390 -370  -391 0 
-390 370 391 0 
390 -370  -391 0 
390 370  -391 0 
-391 -371  -392 0 
-391 371 392 0 
391 -371 392 0 
391 371 392 0 
-392 -372 -1930 393 0 
-392 -372 1930 -393 0 
-392 372 -1931 393 0 
-392 372 1931 -393 0 
392 -372 -1932 393 0 
392 -372 1932 -393 0 
392 372 -1933 393 0 
392 372 1933 -393 0 
-393 -373 -1934 394 0 
-393 -373 1934 -394 0 
-393 373 -1935 394 0 
-393 373 1935 -394 0 
393 -373 -1936 394 0 
393 -373 1936 -394 0 
393 373 -1937 394 0 
393 373 1937 -394 0 
-394 -374 395 0 
-394 374  -395 0 
394 -374 395 0 
394 374 395 0 
-395 -375 396 0 
-395 375 396 0 
395 -375 396 0 
395 375  -396 0 
-396 -376  -397 0 
-396 376  -397 0 
396 -376 397 0 
396 376  -397 0 
-397 -377 398 0 
-397 377 398 0 
397 -377  -398 0 
397 377  -398 0 
-398 -378 -1954 399 0 
-398 -378 1954 -399 0 
-398 378 -1955 399 0 
-398 378 1955 -399 0 
398 -378 -1956 399 0 
398 -378 1956 -399 0 
398 378 -1957 399 0 
398 378 1957 -399 0 
-379 -1958 400 0 
-379 1958 -400 0 
379 -1959 400 0 
379 1959 -400 0 
-400 -380 -1960 401 0 
-400 -380 1960 -401 0 
-400 380 -1961 401 0 
-400 380 1961 -401 0 
400 -380 -1962 401 0 
400 -380 1962 -401 0 
400 380 -1963 401 0 
400 380 1963 -401 0 
-401 -381 402 0 
-401 381  -402 0 
401 -381 402 0 
401 381  -402 0 
-402 -382 403 0 
-402 382  -403 0 
402 -382  -403 0 
402 382  -403 0 
-403 -383  -404 0 
-403 383  -404 0 
403 -383 404 0 
403 383  -404 0 
-404 -384 405 0 
-404 384 405 0 
404 -384  -405 0 
404 384  -405 0 
-405 -385  -406 0 
-405 385 406 0 
405 -385 406 0 
405 385 406 0 
-406 -386  -407 0 
-406 386  -407 0 
406 -386 407 0 
406 386  -407 0 
-407 -387 -1988 408 0 
-407 -387 1988 -408 0 
-407 387 -1989 408 0 
-407 387 1989 -408 0 
407 -387 -1990 408 0 
407 -387 1990 -408 0 
407 387 -1991 408 0 
407 387 1991 -408 0 
-408 -388  -409 0 
-408 388  -409 0 
408 -388 409 0 
408 388  -409 0 
-409 -389  -410 0 
-409 389  -410 0 
409 -389  -410 0 
409 389 410 0 
-410 -390 411 0 
-410 390  -411 0 
410 -390 411 0 
410 390 411 0 
-411 -391 412 0 
-411 391 412 0 
411 -391 412 0 
411 391  -412 0 
-412 -392 413 0 
-412 392  -413 0 
412 -392 413 0 
412 392 413 0 
-413 -393 -2012 414 0 
-413 -393 2012 -414 0 
-413 393 -2013 414 0 
-413 393 2013 -414 0 
413 -393 -2014 414 0 
413 -393 2014 -414 0 
413 393 -2015 414 0 
413 393 2015 -414 0 
-414 -394  -415 0 
-414 394 415 0 
414 -394 415 0 
414 394  -415 0 
-415 -395  -416 0 
-415 395  -416 0 
415 -395  -416 0 
415 395 416 0 
-416 -396  -417 0 
-416 396  -417 0 
416 -396  -417 0 
416 396 417 0 
-417 -397 418 0 
-417 397  -418 0 
417 -397 418 0 
417 397 418 0 
-418 -398 -2032 419 0 
-418 -398 2032 -419 0 
-418 398 -2033 419 0 
-418 398 2033 -419 0 
418 -398 -2034 419 0 
418 -398 2034 -419 0 
418 398 -2035 419 0 
418 398 2035 -419 0 
-419 -399 -2036 420 0 
-419 -399 2036 -420 0 
-419 399 -2037 420 0 
-419 399 2037 -420 0 
419 -399 -2038 420 0 
419 -399 2038 -420 0 
419 399 -2039 420 0 
419 399 2039 -420 0 
-400 -2040 421 0 
-400 2040 -421 0 
400 -2041 421 0 
400 2041 -421 0 
-421 -401 -2042 422 0 
-421 -401 2042 -422 0 
-421 401 -2043 422 0 
-421 401 2043 -422 0 
421 -401 -2044 422 0 
421 -401 2044 -422 0 
421 401 -2045 422 0 
421 401 2045 -422 0 
-422 -402 423 0 
-422 402  -423 0 
422 -402  -423 0 
422 402  -423 0 
-423 -403 -2050 424 0 
-423 -403 2050 -424 0 
-423 403 -2051 424 0 
-423 403 2051 -424 0 
423 -403 -2052 424 0 
423 -403 2052 -424 0 
423 403 -2053 424 0 
423 403 2053 -424 0 
-424 -404  -425 0 
-424 404 425 0 
424 -404 425 0 
424 404  -425 0 
-425 -405  -426 0 
-425 405  -426 0 
425 -405  -426 0 
425 405 426 0 
-426 -406 427 0 
-426 406  -427 0 
426 -406  -427 0 
426 406  -427 0 
-427 -407  -428 0 
-427 407  -428 0 
427 -407  -428 0 
427 407 428 0 
-428 -408  -429 0 
-428 408 429 0 
428 -408 429 0 
428 408 429 0 
-429 -409 430 0 
-429 409 430 0 
429 -409 430 0 
429 409  -430 0 
-430 -410  -431 0 
-430 410 431 0 
430 -410  -431 0 
430 410 431 0 
-431 -411 432 0 
-431 411 432 0 
431 -411  -432 0 
431 411  -432 0 
-432 -412 -2086 433 0 
-432 -412 2086 -433 0 
-432 412 -2087 433 0 
-432 412 2087 -433 0 
432 -412 -2088 433 0 
432 -412 2088 -433 0 
432 412 -2089 433 0 
432 412 2089 -433 0 
-433 -413 434 0 
-433 413 434 0 
433 -413  -434 0 
433 413 434 0 
-434 -414 435 0 
-434 414 435 0 
434 -414  -435 0 
434 414 435 0 
-435 -415 -2098 436 0 
-435 -415 2098 -436 0 
-435 415 -2099 436 0 
-435 415 2099 -436 0 
435 -415 -2100 436 0 
435 -415 2100 -436 0 
435 415 -2101 436 0 
435 415 2101 -436 0 
-436 -416 437 0 
-436 416  -437 0 
436 -416 437 0 
436 416  -437 0 
-437 -417 438 0 
-437 417  -438 0 
437 -417 438 0 
437 417 438 0 
-438 -418  -439 0 
-438 418  -439 0 
438 -418  -439 0 
438 418 439 0 
-439 -419 440 0 
-439 419  -440 0 
439 -419  -440 0 
439 419  -440 0 
-440 -420 441 0 
-440 420 441 0 
440 -420  -441 0 
440 420  -441 0 

441 0
